; Copyright (c) 2026 The RIINA Authors. All rights reserved.
; Copyright (c) 2026 The RIINA Authors.
; Auto-generated from 02_FORMAL/coq/Industries/IndustryManufacturing.v (24 assertions)
; Generated by scripts/generate-full-stack.py
; Module: IndustryManufacturing

(set-logic ALL)
(set-option :produce-models true)

; SecurityLevel (matches Coq: Inductive SecurityLevel)
(declare-datatypes ((SecurityLevel 0)) (((SL_0) (SL_1) (SL_2) (SL_3) (SL_4) (IEC_SIL_1) (IEC_SIL_2) (IEC_SIL_3) (IEC_SIL_4))))

; PurdueLevel (matches Coq: Inductive PurdueLevel)
(declare-datatypes ((PurdueLevel 0)) (((Level_0_Process) (Level_1_Control) (Level_2_Supervisory) (Level_3_Operations) (Level_4_Business) (Level_5_Enterprise))))

; ManufacturingEffect (matches Coq: Inductive ManufacturingEffect)
(declare-datatypes ((ManufacturingEffect 0)) (((PLC_Control) (SCADA_Operation) (MES_Transaction) (SafetyFunction) (ProcessControl))))

; IEC62443_Compliance (matches Coq: Record IEC62443_Compliance)
(declare-datatypes ((IEC62443_Compliance 0))
  (((mk-iec62443__compliance (part_2_1_policies Bool) (part_2_4_service_providers Bool) (part_3_2_zones_conduits Bool) (part_3_3_system_requirements Bool) (part_4_1_secure_development Bool) (part_4_2_component_requirements Bool) (target_security_level SecurityLevel)))))

; abs_diff (matches Coq: Definition abs_diff)
(define-fun abs_diff () Int true)

; sl_to_nat (matches Coq: Definition sl_to_nat)
(define-fun sl_to_nat ((sl SecurityLevel)) Int
  true)

; sl_le (matches Coq: Definition sl_le)
(define-fun sl_le () Bool Nat)

; sil_to_nat (matches Coq: Definition sil_to_nat)
(define-fun sil_to_nat ((s IEC61508_SIL)) Int
  true)

; sil_le (matches Coq: Definition sil_le)
(define-fun sil_le () Bool Nat)

; purdue_to_nat (matches Coq: Definition purdue_to_nat)
(define-fun purdue_to_nat ((p PurdueLevel)) Int
  true)

; purdue_le (matches Coq: Definition purdue_le)
(define-fun purdue_le () Bool Nat)

; purdue_adjacent (matches Coq: Definition purdue_adjacent)
(define-fun purdue_adjacent () Bool true)

; safe_failure_fraction_pct (matches Coq: Definition safe_failure_fraction_pct)
(define-fun safe_failure_fraction_pct ((s IEC61508_SIL)) Int
  true)

; iec62443_full_compliance (matches Coq: Definition iec62443_full_compliance)
(define-fun iec62443_full_compliance ((c IEC62443_Compliance)) Bool
  (and (part_2_1_policies c) (part_2_4_service_providers c) (part_3_2_zones_conduits c) (part_3_3_system_requirements c) (part_4_1_secure_development c) (part_4_2_component_requirements c)))

; testing_coverage_pct (matches Coq: Definition testing_coverage_pct)
(define-fun testing_coverage_pct ((sl SecurityLevel)) Int
  true)

; ot_isolated (matches Coq: Definition ot_isolated)
(define-fun ot_isolated ((purdue PurdueLevel)) Bool
  true)

; patch_window_days (matches Coq: Definition patch_window_days)
(define-fun patch_window_days ((sl SecurityLevel)) Int
  true)

; iec_62443_compliance (matches Coq: Theorem iec_62443_compliance)
(assert (= true true)) ; iec_62443_compliance [untranslatable]

; iec_61508_safety (matches Coq: Theorem iec_61508_safety)
(assert (= true true)) ; iec_61508_safety [untranslatable]

; zone_conduit_security (matches Coq: Theorem zone_conduit_security)
(assert (= true true)) ; zone_conduit_security [untranslatable]

; secure_development_lifecycle (matches Coq: Theorem secure_development_lifecycle)
(assert (= true true)) ; secure_development_lifecycle [untranslatable]

; nist_800_82_compliance (matches Coq: Theorem nist_800_82_compliance)
(assert (= true true)) ; nist_800_82_compliance [untranslatable]

; sl4_state_level_protection (matches Coq: Theorem sl4_state_level_protection)
(assert (= true true)) ; sl4_state_level_protection [untranslatable]

; zone_boundary_enforcement (matches Coq: Theorem zone_boundary_enforcement)
(assert (= true true)) ; zone_boundary_enforcement [untranslatable]

; sl_le_refl (matches Coq: Lemma sl_le_refl)
(assert (= true true)) ; sl_le_refl [untranslatable]

; sl_le_trans (matches Coq: Lemma sl_le_trans)
(assert (= true true)) ; sl_le_trans [untranslatable]

; sl_le_antisym (matches Coq: Lemma sl_le_antisym)
(assert (= true true)) ; sl_le_antisym [untranslatable]

; sil_le_refl (matches Coq: Lemma sil_le_refl)
(assert (= true true)) ; sil_le_refl [untranslatable]

; sil_positive (matches Coq: Lemma sil_positive)
(assert (= true true)) ; sil_positive [untranslatable]

; purdue_le_refl (matches Coq: Lemma purdue_le_refl)
(assert (= true true)) ; purdue_le_refl [untranslatable]

; same_level_adjacent (matches Coq: Theorem same_level_adjacent)
(assert (= true true)) ; same_level_adjacent [untranslatable]

; sff_minimum_60 (matches Coq: Theorem sff_minimum_60)
(assert (= true true)) ; sff_minimum_60 [untranslatable]

; higher_sil_higher_sff (matches Coq: Theorem higher_sil_higher_sff)
(assert (= true true)) ; higher_sil_higher_sff [untranslatable]

; full_compliance_requires_zones (matches Coq: Theorem full_compliance_requires_zones)
(assert (= true true)) ; full_compliance_requires_zones [untranslatable]

; full_compliance_requires_secure_dev (matches Coq: Theorem full_compliance_requires_secure_dev)
(assert (= true true)) ; full_compliance_requires_secure_dev [untranslatable]

; sl4_full_coverage (matches Coq: Theorem sl4_full_coverage)
(assert (= (testing_coverage_pct SL_4) 100)) ; sl4_full_coverage

; testing_coverage_monotone (matches Coq: Theorem testing_coverage_monotone)
(assert (= true true)) ; testing_coverage_monotone [untranslatable]

; process_level_isolated (matches Coq: Theorem process_level_isolated)
(assert (= (ot_isolated Level_0_Process) true)) ; process_level_isolated

; control_level_isolated (matches Coq: Theorem control_level_isolated)
(assert (= (ot_isolated Level_1_Control) true)) ; control_level_isolated

; business_level_not_ot (matches Coq: Theorem business_level_not_ot)
(assert (= (ot_isolated Level_4_Business) false)) ; business_level_not_ot

; patch_window_decreasing (matches Coq: Theorem patch_window_decreasing)
(assert (= true true)) ; patch_window_decreasing [untranslatable]

; Verify all assertions are satisfiable
(check-sat)
(exit)
